
  32    1
  10

   0   0   4 2 3 4 6 
   1   5   3 11 9 5 
   5  10   2 12 7 
   9   7   2 12 7 
   1  10   3 12 10 8 
  10   5   3 12 10 8 
   6   3   2 9 8 
   6   8   5 18 17 16 14 13 
   9   3   2 13 10 
   7   7   3 18 16 15 
   9   9   3 18 17 15 
   3   3   2 18 13 
   5  10   3 22 21 15 
   8   9   2 22 15 
  10   8   4 25 23 20 19 
   3   9   4 31 22 21 20 
   7  10   4 25 23 22 20 
   5   9   2 25 21 
   1  10   4 31 29 26 24 
   3   4   3 29 26 24 
   2  10   3 30 26 23 
  10  10   4 30 29 28 27 
   6  10   3 29 28 27 
   9   9   3 30 28 27 
   3  10   3 31 29 28 
   6   9   1 27 
   2   8   1 32
   6   8   1 32
   7  10   1 32
   1   7   1 32
   9  10   1 32
   0   0   0 
